
  32    1
  10

   0   0   9 2 3 4 5 6 7 8 9 14 
   5   1   7 20 17 16 15 13 12 10 
   9   3   6 22 20 18 17 15 13 
   9   2   5 23 21 20 13 12 
   9   1   4 20 13 12 10 
   2   1   4 22 18 13 11 
   8   1   4 23 20 15 13 
   4   2   7 31 25 23 22 21 20 19 
   3   3   4 21 20 18 13 
   1   2   4 31 22 21 18 
   8   1   5 31 25 23 21 19 
   4   4   4 31 28 22 18 
   6   1   5 31 28 25 24 19 
   7   1   3 28 24 18 
   5   1   5 30 29 27 24 21 
   7   1   4 30 28 27 22 
   6   5   3 29 23 21 
   9   4   2 25 19 
   9   2   4 30 29 27 26 
   9   2   4 29 28 27 26 
   1   2   2 28 26 
  10   1   1 24 
   7   2   1 24 
   7   2   1 26 
  10   3   1 27 
   8   2   1 32
   5   2   1 32
   4   1   1 32
   4   2   1 32
   8   2   1 32
   2   3   1 32
   0   0   0 
